(declare-const temp_init Int)
(declare-const bob_init Int)
(declare-const samantha_init Int)
(declare-const c_0 Int)
(declare-const c_1 Int)
(declare-const c_2 Int)
(declare-const c_3 Int)
(declare-const c_4 Int)
(declare-const c_5 Int)
(declare-const c_6 Int)
(declare-const c_7 Int)
(declare-const c_8 Int)
(declare-const c_9 Int)
(declare-const c_10 Int)
(declare-const c_11 Int)
(declare-const c_12 Int)
(declare-const c_13 Int)
(declare-const c_14 Int)
(declare-const c_15 Int)
(declare-const c_16 Int)
(declare-const c_17 Int)
(declare-const c_18 Int)
(declare-const c_19 Int)
(assert (< c_0 0))
(assert (and (>= (+ (* 1 c_1 ) (* (- 1) temp_init ) ) 0) (>= (+ (* (- 1) c_1 ) (* 1 temp_init ) ) 0) (>= (+ (* (- 1) bob_init ) (* 1 c_2 ) ) 0) (>= (+ (* 1 bob_init ) (* (- 1) c_2 ) ) 0) (>= (+ (* 1 c_3 ) (* (- 1) samantha_init ) ) 0) (>= (+ (* (- 1) c_3 ) (* 1 samantha_init ) ) 0) ))
(assert (forall ((temp Real) (bob Real) (samantha Real) ) (=> (and (>= (+ (* (- 1) 1) (* (- 1) c_4 ) (* (- 13) c_5 ) (* (- 17) c_6 ) (* (- 1) c_7 temp ) ) 0) (>= (+ (* 1 c_1 ) (* (- 1) temp ) ) 0) (>= (+ (* (- 1) c_1 ) (* 1 temp ) ) 0) (>= (+ (* (- 1) bob ) (* 1 c_2 ) ) 0) (>= (+ (* 1 bob ) (* (- 1) c_2 ) ) 0) (>= (+ (* 1 c_3 ) (* (- 1) samantha ) ) 0) (>= (+ (* (- 1) c_3 ) (* 1 samantha ) ) 0) ) (>= (+ (* 1 c_12 ) (* 13 c_13 ) (* 17 c_14 ) (* 1 c_15 temp ) ) 0) )))
(assert (forall ((temp Real) (bob Real) (samantha Real) ) (=> (and (>= (+ (* (- 1) 1) (* (- 1) c_4 ) (* (- 13) c_5 ) (* (- 17) c_6 ) (* (- 1) c_7 temp ) ) 0) (>= (+ (* 1 c_1 ) (* (- 1) temp ) ) 0) (>= (+ (* (- 1) c_1 ) (* 1 temp ) ) 0) (>= (+ (* (- 1) bob ) (* 1 c_2 ) ) 0) (>= (+ (* 1 bob ) (* (- 1) c_2 ) ) 0) (>= (+ (* 1 c_3 ) (* (- 1) samantha ) ) 0) (>= (+ (* (- 1) c_3 ) (* 1 samantha ) ) 0) ) (>= (+ (* 1 c_16 ) (* 13 c_17 ) (* 17 c_18 ) (* 1 c_19 temp ) ) 0) )))
(assert (forall ((temp Real) (bob Real) (samantha Real) ) (=> (and (>= (+ (* (- 1) 1) (* (- 17) c_10 ) (* (- 1) c_11 temp ) (* (- 1) c_8 ) (* (- 13) c_9 ) ) 0) (>= (+ (* 1 c_1 ) (* (- 1) temp ) ) 0) (>= (+ (* (- 1) c_1 ) (* 1 temp ) ) 0) (>= (+ (* (- 1) bob ) (* 1 c_2 ) ) 0) (>= (+ (* 1 bob ) (* (- 1) c_2 ) ) 0) (>= (+ (* 1 c_3 ) (* (- 1) samantha ) ) 0) (>= (+ (* (- 1) c_3 ) (* 1 samantha ) ) 0) ) (>= (+ (* 1 c_12 ) (* 13 c_13 ) (* 17 c_14 ) (* 1 c_15 temp ) ) 0) )))
(assert (forall ((temp Real) (bob Real) (samantha Real) ) (=> (and (>= (+ (* (- 1) 1) (* (- 17) c_10 ) (* (- 1) c_11 temp ) (* (- 1) c_8 ) (* (- 13) c_9 ) ) 0) (>= (+ (* 1 c_1 ) (* (- 1) temp ) ) 0) (>= (+ (* (- 1) c_1 ) (* 1 temp ) ) 0) (>= (+ (* (- 1) bob ) (* 1 c_2 ) ) 0) (>= (+ (* 1 bob ) (* (- 1) c_2 ) ) 0) (>= (+ (* 1 c_3 ) (* (- 1) samantha ) ) 0) (>= (+ (* (- 1) c_3 ) (* 1 samantha ) ) 0) ) (>= (+ (* 1 c_16 ) (* 13 c_17 ) (* 17 c_18 ) (* 1 c_19 temp ) ) 0) )))
(assert (forall ((temp Real) (bob Real) (samantha Real) ) (=> (and (>= (+ (* (- 1) 1) (* (- 1) bob c_6 ) (* (- 1) bob c_7 ) (* (- 1) c_4 ) (* (- 1) c_5 samantha ) ) 0) (>= (+ (* 99 1) (* (- 1) bob ) (* (- 1) samantha ) ) 0) (>= (+ (* 1 bob c_5 ) (* 1 c_4 ) (* 1 c_6 samantha ) (* 1 c_7 temp ) ) 0) (>= (+ (* 1 bob c_9 ) (* 1 c_10 samantha ) (* 1 c_11 temp ) (* 1 c_8 ) ) 0) ) (>= (+ (* 1 bob c_14 ) (* 1 bob c_15 ) (* 1 c_12 ) (* 1 c_13 samantha ) ) 0) )))
(assert (forall ((temp Real) (bob Real) (samantha Real) ) (=> (and (>= (+ (* (- 1) 1) (* (- 1) bob c_6 ) (* (- 1) bob c_7 ) (* (- 1) c_4 ) (* (- 1) c_5 samantha ) ) 0) (>= (+ (* 99 1) (* (- 1) bob ) (* (- 1) samantha ) ) 0) (>= (+ (* 1 bob c_5 ) (* 1 c_4 ) (* 1 c_6 samantha ) (* 1 c_7 temp ) ) 0) (>= (+ (* 1 bob c_9 ) (* 1 c_10 samantha ) (* 1 c_11 temp ) (* 1 c_8 ) ) 0) ) (>= (+ (* 1 bob c_18 ) (* 1 bob c_19 ) (* 1 c_16 ) (* 1 c_17 samantha ) ) 0) )))
(assert (forall ((temp Real) (bob Real) (samantha Real) ) (=> (and (>= (+ (* (- 1) 1) (* (- 1) bob c_10 ) (* (- 1) bob c_11 ) (* (- 1) c_8 ) (* (- 1) c_9 samantha ) ) 0) (>= (+ (* 99 1) (* (- 1) bob ) (* (- 1) samantha ) ) 0) (>= (+ (* 1 bob c_5 ) (* 1 c_4 ) (* 1 c_6 samantha ) (* 1 c_7 temp ) ) 0) (>= (+ (* 1 bob c_9 ) (* 1 c_10 samantha ) (* 1 c_11 temp ) (* 1 c_8 ) ) 0) ) (>= (+ (* 1 bob c_14 ) (* 1 bob c_15 ) (* 1 c_12 ) (* 1 c_13 samantha ) ) 0) )))
(assert (forall ((temp Real) (bob Real) (samantha Real) ) (=> (and (>= (+ (* (- 1) 1) (* (- 1) bob c_10 ) (* (- 1) bob c_11 ) (* (- 1) c_8 ) (* (- 1) c_9 samantha ) ) 0) (>= (+ (* 99 1) (* (- 1) bob ) (* (- 1) samantha ) ) 0) (>= (+ (* 1 bob c_5 ) (* 1 c_4 ) (* 1 c_6 samantha ) (* 1 c_7 temp ) ) 0) (>= (+ (* 1 bob c_9 ) (* 1 c_10 samantha ) (* 1 c_11 temp ) (* 1 c_8 ) ) 0) ) (>= (+ (* 1 bob c_18 ) (* 1 bob c_19 ) (* 1 c_16 ) (* 1 c_17 samantha ) ) 0) )))
(assert (forall ((temp Real) (bob Real) (samantha Real) ) (=> (and (>= (+ (* (- 1) 1) (* (- 1) bob c_6 ) (* (- 1) bob c_7 ) (* (- 1) c_4 ) (* (- 1) c_5 samantha ) ) 0) (>= (+ (* 99 1) (* (- 1) bob ) (* (- 1) samantha ) ) 0) (>= (+ (* 1 bob c_13 ) (* 1 c_12 ) (* 1 c_14 samantha ) (* 1 c_15 temp ) ) 0) (>= (+ (* 1 bob c_17 ) (* 1 c_16 ) (* 1 c_18 samantha ) (* 1 c_19 temp ) ) 0) ) (>= (+ (* 1 bob c_14 ) (* 1 bob c_15 ) (* 1 c_12 ) (* 1 c_13 samantha ) ) 0) )))
(assert (forall ((temp Real) (bob Real) (samantha Real) ) (=> (and (>= (+ (* (- 1) 1) (* (- 1) bob c_6 ) (* (- 1) bob c_7 ) (* (- 1) c_4 ) (* (- 1) c_5 samantha ) ) 0) (>= (+ (* 99 1) (* (- 1) bob ) (* (- 1) samantha ) ) 0) (>= (+ (* 1 bob c_13 ) (* 1 c_12 ) (* 1 c_14 samantha ) (* 1 c_15 temp ) ) 0) (>= (+ (* 1 bob c_17 ) (* 1 c_16 ) (* 1 c_18 samantha ) (* 1 c_19 temp ) ) 0) ) (>= (+ (* 1 bob c_18 ) (* 1 bob c_19 ) (* 1 c_16 ) (* 1 c_17 samantha ) ) 0) )))
(assert (forall ((temp Real) (bob Real) (samantha Real) ) (=> (and (>= (+ (* (- 1) 1) (* (- 1) bob c_10 ) (* (- 1) bob c_11 ) (* (- 1) c_8 ) (* (- 1) c_9 samantha ) ) 0) (>= (+ (* 99 1) (* (- 1) bob ) (* (- 1) samantha ) ) 0) (>= (+ (* 1 bob c_13 ) (* 1 c_12 ) (* 1 c_14 samantha ) (* 1 c_15 temp ) ) 0) (>= (+ (* 1 bob c_17 ) (* 1 c_16 ) (* 1 c_18 samantha ) (* 1 c_19 temp ) ) 0) ) (>= (+ (* 1 bob c_14 ) (* 1 bob c_15 ) (* 1 c_12 ) (* 1 c_13 samantha ) ) 0) )))
(assert (forall ((temp Real) (bob Real) (samantha Real) ) (=> (and (>= (+ (* (- 1) 1) (* (- 1) bob c_10 ) (* (- 1) bob c_11 ) (* (- 1) c_8 ) (* (- 1) c_9 samantha ) ) 0) (>= (+ (* 99 1) (* (- 1) bob ) (* (- 1) samantha ) ) 0) (>= (+ (* 1 bob c_13 ) (* 1 c_12 ) (* 1 c_14 samantha ) (* 1 c_15 temp ) ) 0) (>= (+ (* 1 bob c_17 ) (* 1 c_16 ) (* 1 c_18 samantha ) (* 1 c_19 temp ) ) 0) ) (>= (+ (* 1 bob c_18 ) (* 1 bob c_19 ) (* 1 c_16 ) (* 1 c_17 samantha ) ) 0) )))
(assert (forall ((temp Real) (bob Real) (samantha Real) ) (=> (and (>= (+ (* (- 100) 1) (* 1 bob ) (* 1 samantha ) ) 0) (>= (+ (* 1 bob c_5 ) (* 1 c_4 ) (* 1 c_6 samantha ) (* 1 c_7 temp ) ) 0) (>= (+ (* 1 bob c_9 ) (* 1 c_10 samantha ) (* 1 c_11 temp ) (* 1 c_8 ) ) 0) ) (>= (* 1 c_0 ) 0) )))
(assert (forall ((temp Real) (bob Real) (samantha Real) ) (=> (and (>= (+ (* (- 100) 1) (* 1 bob ) (* 1 samantha ) ) 0) (>= (+ (* 1 bob c_13 ) (* 1 c_12 ) (* 1 c_14 samantha ) (* 1 c_15 temp ) ) 0) (>= (+ (* 1 bob c_17 ) (* 1 c_16 ) (* 1 c_18 samantha ) (* 1 c_19 temp ) ) 0) ) (>= (* 1 c_0 ) 0) )))
(check-sat)
(get-model)

